Route #1: 11 7
Route #2: 42 25 95
Route #3: 39 66 89 1 109 136 123 113 145 49 129
Route #4: 105 110 14
Route #5: 6 4
Route #6: 71 84 26 58 69 82 64 104 124 57 53
Route #7: 117 45 148 98 50 85 76 114 18 81 135 77 48
Route #8: 90 128 73 142 54 44 52 93 2
Route #9: 108 31 126 51 122 59 3 10
Route #10: 17 12 121
Route #11: 21
Route #12: 29 9
Route #13: 130 146 33 63 68 138 16 143
Route #14: 102 87 47 23 144 41 88 74
Route #15: 149 15 5 141
Route #16: 8 83
Route #17: 34 107 78 61 80 24 79 67 150 92 99 86 40 139
Route #18: 147 65 131 111 125 106 35 32 27 62 101 120
Route #19: 112 55 152 19 133 46 116 38 75 36
Route #20: 115 134 94 140 119 91 70 100 137 22 96 132 56 43 151 118 97 127 72 20 103 37
Route #21: 13 30 28 60
Cost 19188.000000